c   nvars nclauses
p cnf 16 42
c spec
4 5 0
-4 -5 0
3 -6 0
5 -6 0
-3 -5 6 0
-4 7 0
-6 7 0
4 6 -7 0
c dont care
4 -10 0
3 -10 0
-4 -3 10 0
4 -11 0
2 -11 0
-4 -2 11 0
4 -12 0
1 -12 0
-4 -1 12 0
3 -13 0
2 -13 0
-3 -2 13 0
3 -14 0
1 -14 0
-3 -1 14 0
2 -15 0
1 -15 0
-2 -1 15 0
c inter or
-7 9 0
-10 9 0
-11 9 0
-12 9 0
-13 9 0
-14 9 0
-15 9 0
7 10 11 12 13 14 15 -9 0
c impl
-3 8 0
-4 8 0
3 4 -8 0
c final xor
8 9 -16 0
8 -9 16 0
-8 9 16 0
-8 - 9 -16 0
16 0
